(set-logic QF_BV)
(declare-fun _substvar_1108_ () Bool)
(declare-fun _substvar_585_ () (_ BitVec 8))
(declare-fun _substvar_507_ () (_ BitVec 32))
(declare-fun _substvar_594_ () (_ BitVec 16))
(declare-fun _substvar_182_ () (_ BitVec 8))
(declare-fun _substvar_599_ () (_ BitVec 8))
(declare-fun _substvar_596_ () (_ BitVec 16))
(assert (let ((?v_16 ((_ zero_extend 24) _substvar_182_))) (let ( (?v_17 ((_ zero_extend 24) _substvar_585_))) (let ( (?v_8 ((_ zero_extend 16) _substvar_594_)) (?v_2 ((_ zero_extend 16) _substvar_596_)) (?v_0 ((_ zero_extend 24) _substvar_599_))) (let ((?v_1 (bvadd ?v_0 (_ bv1 32)))) (let ((?v_4 (bvadd (bvadd ?v_1 (_ bv4269308 32)) ?v_2))) (let ((?v_6 (bvadd ?v_4 (_ bv6 32)))) (let ((?v_14 (bvadd (bvadd ?v_6 (_ bv0 32)) (_ bv2 32)))) (let ((?v_13 (bvadd ?v_14 ?v_8))) (let ((?v_19 (bvadd ?v_13 (_ bv6 32)))) (let ((?v_25 (bvadd ?v_19 (_ bv0 32)))) (let ((?v_15 (bvadd ?v_25 (_ bv2 32)))) (let ((?v_29 (bvadd ?v_15 ?v_16))) (let ((?v_31 (bvadd (bvadd ?v_29 (_ bv1 32)) ?v_17))) (let ((?v_5 (bvadd (bvadd (_ bv0 32) (_ bv4269317 32)) ?v_2))) (let ((?v_20 (bvadd (bvadd (bvadd (bvadd ?v_5 (_ bv15 32)) (_ bv0 32)) (_ bv2 32)) ?v_8))) (and true true true true true true true (bvsle (_ bv1040 32) (bvsub (bvadd (bvadd (bvadd (bvadd (bvadd (bvadd ?v_20 (_ bv7 32)) _substvar_507_) (_ bv3 32)) ?v_16) (_ bv0 32)) ?v_17) (_ bv4269120 32))) true true true true true true true true true true true true true true true _substvar_1108_ true true true true true true true true true true true true true (= _substvar_507_ (_ bv1 32)) true true true true true true (bvule (bvadd ?v_31 (_ bv2 32)) (_ bv4270134 32)) true true true true)))))))))))))))))
(check-sat)
(exit)
